100
300
30
0 0
49 59
25 60
76 95
60 26
25 21
32 96
33 7
42 99
3 10
13 6
88 60
11 4
0 43
79 55
17 91
63 50
67 67
96 93
67 3
45 31
67 89
78 39
32 64
52 22
38 34
46 98
21 30
38 27
36 89
45 44
0 0
30
40
30
40
40
50
60
30
30
50
40
60
40
50
70
30
40
30
40
40
50
60
30
30
50
40
60
40
50
70
